Tried aggregator 1 time.
MIP Presolve eliminated 333 rows and 237 columns.
MIP Presolve modified 14024 coefficients.
Reduced MIP has 361 rows, 363 columns, and 12229 nonzeros.
Reduced MIP has 363 binaries, 0 generals, 0 SOSs, and 0 indicators.
Presolve time = 0,06 sec. (53,68 ticks)
Found incumbent of value 79,000000 after 0,09 sec. (75,29 ticks)
Probing time = 0,01 sec. (3,99 ticks)
Tried aggregator 1 time.
MIP Presolve eliminated 4 rows and 0 columns.
MIP Presolve modified 1134 coefficients.
Reduced MIP has 356 rows, 363 columns, and 11689 nonzeros.
Reduced MIP has 363 binaries, 0 generals, 0 SOSs, and 0 indicators.
Presolve time = 0,03 sec. (17,39 ticks)
Probing time = 0,01 sec. (3,83 ticks)
Clique table members: 1593.
MIP emphasis: balance optimality and feasibility.
MIP search method: dynamic search.
Parallel mode: deterministic, using up to 8 threads.
Root relaxation solution time = 0,00 sec. (1,63 ticks)

        Nodes                                         Cuts/
   Node  Left     Objective  IInf  Best Integer    Best Bound    ItCnt     Gap

*     0+    0                           79,0000        0,0000           100,00%
*     0+    0                           58,0000        0,0000           100,00%
*     0+    0                           46,0000        0,0000           100,00%
      0     0       40,5715    17       46,0000       40,5715       29   11,80%
*     0+    0                           44,0000       40,5715             7,79%
      0     0        cutoff             44,0000       44,0000       65    0,00%
Elapsed time = 0,18 sec. (118,58 ticks, tree = 0,01 MB, solutions = 4)

GUB cover cuts applied:  13
Clique cuts applied:  7
Cover cuts applied:  4
Implied bound cuts applied:  19
Flow cuts applied:  1
Mixed integer rounding cuts applied:  6
Zero-half cuts applied:  12
Lift and project cuts applied:  2
Gomory fractional cuts applied:  7

Root node processing (before b&c):
  Real time             =    0,18 sec. (118,66 ticks)
Parallel b&c, 8 threads:
  Real time             =    0,00 sec. (0,00 ticks)
  Sync time (average)   =    0,00 sec.
  Wait time (average)   =    0,00 sec.
                          ------------
Total (root+branch&cut) =    0,18 sec. (118,66 ticks)

